(set-option :print-success false)
(set-logic QF_UF)
(declare-sort x88 0)
(declare-sort x54 0)
(declare-fun x134 (x54 x54) x54)
(declare-fun x101 () x54)
(declare-fun x115 () x54)
(declare-fun x46 () x54)
(declare-fun x9 () x54)
(declare-fun x61 () x54)
(declare-fun x62 (x54 x54) x54)
(assert (or (or (and (not (= (x62 x61 x9) x61)) (and (and (not (= (x62 x115 x9) x115)) (and (not (= (x62 x46 x9) x46)) (not (= (x62 x101 x9) x101)))) (not (= (x62 x9 x9) x9)))) (or (or (and (and (not (= (x62 x9 x101) x9)) (and (not (= x115 (x62 x115 x101))) (and (not (= x101 (x62 x101 x101))) (not (= (x62 x46 x101) x46))))) (not (= x61 (x62 x61 x101)))) (and (not (= (x62 x61 x46) x61)) (and (not (= x9 (x62 x9 x46))) (and (not (= (x62 x115 x46) x115)) (and (not (= x101 (x62 x101 x46))) (not (= (x62 x46 x46) x46))))))) (and (and (and (not (= x115 (x62 x115 x115))) (and (not (= x46 (x62 x46 x115))) (not (= x101 (x62 x101 x115))))) (not (= (x62 x9 x115) x9))) (not (= (x62 x61 x115) x61))))) (and (and (not (= (x62 x9 x61) x9)) (and (and (not (= (x62 x101 x61) x101)) (not (= x46 (x62 x46 x61)))) (not (= x115 (x62 x115 x61))))) (not (= (x62 x61 x61) x61)))))
(assert (let ((x104 (x62 x61 x9)) (x39 (x62 x101 x115)) (x144 (x62 x61 x46)) (x151 (= x115 (x62 x115 x115))) (x116 (x62 x115 x61)) (x158 (= x46 (x62 x46 x46))) (x70 (x62 x9 x61)) (x11 (x62 x46 x115)) (x132 (= x61 (x62 x61 x61))) (x110 (x62 x115 x46)) (x153 (x62 x61 x115)) (x32 (= x9 (x62 x9 x9))) (x103 (x62 x46 x9)) (x1 (x62 x9 x101)) (x121 (x62 x46 x61)) (x34 (= (x62 x101 x101) x101)) (x135 (x62 x115 x101)) (x43 (x62 x101 x46)) (x126 (x62 x61 x101)) (x159 (x62 x115 x9)) (x87 (x62 x9 x46)) (x118 (x62 x101 x9)) (x72 (x62 x101 x61)) (x107 (x62 x46 x101)) (x16 (x62 x9 x115))) (or (or (and x132 x132) (or (or (or (and (= x61 x126) (= x72 x61)) (and (= x121 x61) (= x61 x144))) (and (= x116 x61) (= x153 x61))) (and (= x70 x61) (= x104 x61)))) (or (or (and (= x70 x9) (= x104 x9)) (or (and x32 x32) (or (or (and (= x103 x9) (= x9 x87)) (and (= x118 x9) (= x1 x9))) (and (= x9 x159) (= x9 x16))))) (or (or (or (and (= x144 x46) (= x121 x46)) (or (and (= x87 x46) (= x103 x46)) (or (or (and x158 x158) (and (= x46 x43) (= x46 x107))) (and (= x46 x11) (= x110 x46))))) (or (and (= x72 x101) (= x126 x101)) (or (and (= x101 x118) (= x101 x1)) (or (or (and x34 x34) (and (= x101 x43) (= x107 x101))) (and (= x39 x101) (= x101 x135)))))) (or (and (= x115 x153) (= x116 x115)) (or (and (= x16 x115) (= x115 x159)) (or (and x151 x151) (or (and (= x110 x115) (= x115 x11)) (and (= x115 x39) (= x135 x115)))))))))))
(assert (or (or (or (or (and (not (= x61 (x62 x46 (x62 x46 x61)))) (and (and (and (not (= (x62 x46 (x62 x46 x46)) x46)) (not (= x101 (x62 x46 (x62 x46 x101))))) (not (= x115 (x62 x46 (x62 x46 x115))))) (not (= x9 (x62 x46 (x62 x46 x9)))))) (and (and (and (and (not (= (x62 x101 (x62 x101 x101)) x101)) (not (= (x62 x101 (x62 x101 x46)) x46))) (not (= (x62 x101 (x62 x101 x115)) x115))) (not (= (x62 x101 (x62 x101 x9)) x9))) (not (= x61 (x62 x101 (x62 x101 x61)))))) (and (and (not (= x9 (x62 x115 (x62 x115 x9)))) (and (not (= x115 (x62 x115 (x62 x115 x115)))) (and (not (= x46 (x62 x115 (x62 x115 x46)))) (not (= x101 (x62 x115 (x62 x115 x101))))))) (not (= x61 (x62 x115 (x62 x115 x61)))))) (and (and (not (= (x62 x9 (x62 x9 x9)) x9)) (and (not (= x115 (x62 x9 (x62 x9 x115)))) (and (not (= x46 (x62 x9 (x62 x9 x46)))) (not (= (x62 x9 (x62 x9 x101)) x101))))) (not (= (x62 x9 (x62 x9 x61)) x61)))) (and (not (= x61 (x62 x61 (x62 x61 x61)))) (and (and (and (not (= (x62 x61 (x62 x61 x101)) x101)) (not (= x46 (x62 x61 (x62 x61 x46))))) (not (= (x62 x61 (x62 x61 x115)) x115))) (not (= (x62 x61 (x62 x61 x9)) x9))))))
(assert (let ((x158 (x62 x46 x46)) (x16 (x62 x9 x115)) (x151 (x62 x115 x115)) (x132 (x62 x61 x61)) (x1 (x62 x9 x101)) (x118 (x62 x101 x9)) (x34 (x62 x101 x101)) (x43 (x62 x101 x46)) (x159 (x62 x115 x9)) (x110 (x62 x115 x46)) (x32 (x62 x9 x9)) (x121 (x62 x46 x61)) (x135 (x62 x115 x101)) (x70 (x62 x9 x61)) (x87 (x62 x9 x46)) (x126 (x62 x61 x101)) (x104 (x62 x61 x9)) (x103 (x62 x46 x9)) (x107 (x62 x46 x101)) (x39 (x62 x101 x115)) (x72 (x62 x101 x61)) (x144 (x62 x61 x46)) (x116 (x62 x115 x61)) (x153 (x62 x61 x115)) (x11 (x62 x46 x115))) (and (and (and (or (or (or (not (= x151 x151)) (or (not (= x11 x110)) (not (= x135 x39)))) (not (= x159 x16))) (not (= x153 x116))) (and (or (not (= x144 x121)) (or (not (= x103 x87)) (or (or (not (= x158 x158)) (not (= x43 x107))) (not (= x11 x110))))) (or (or (not (= x118 x1)) (or (or (not (= x34 x34)) (not (= x43 x107))) (not (= x39 x135)))) (not (= x126 x72))))) (or (or (or (or (not (= x103 x87)) (not (= x1 x118))) (not (= x16 x159))) (not (= x32 x32))) (not (= x104 x70)))) (or (not (= x132 x132)) (or (or (not (= x153 x116)) (or (not (= x72 x126)) (not (= x144 x121)))) (not (= x104 x70)))))))
(assert (let ((x116 (x62 x101 x61)) (x14 (x62 x61 x101)) (x22 (x62 x61 x9)) (x67 (x62 x61 x61)) (x110 (x62 x46 x9)) (x11 (x62 x46 x61)) (x65 (x62 x115 x115)) (x151 (x62 x115 x46)) (x107 (x62 x46 x101)) (x72 (x62 x101 x115)) (x43 (x62 x46 x46)) (x153 (x62 x101 x9)) (x34 (x62 x46 x115)) (x87 (x62 x9 x46)) (x146 (x62 x9 x9)) (x29 (x62 x9 x61)) (x2 (x62 x9 x115)) (x99 (x62 x61 x115)) (x13 (x62 x115 x61)) (x39 (x62 x101 x46)) (x103 (x62 x61 x46)) (x91 (x62 x9 x101)) (x126 (x62 x101 x101)) (x28 (x62 x115 x9)) (x132 (x62 x115 x101))) (let ((x113 (= x9 x126)) (x78 (= x61 x28)) (x4 (= x9 x65)) (x143 (= x61 x107)) (x32 (= x107 x46)) (x154 (= x103 x61)) (x69 (= x116 x115)) (x92 (= x46 x72)) (x59 (= x151 x115)) (x56 (= x91 x46)) (x100 (= x116 x9)) (x149 (= x101 x67)) (x98 (= x46 x29)) (x38 (= x13 x115)) (x117 (= x87 x101)) (x96 (= x9 x72)) (x85 (= x9 x28)) (x42 (= x9 x99)) (x141 (= x61 x146)) (x33 (= x115 x29)) (x109 (= x101 x146)) (x127 (= x101 x65)) (x155 (= x61 x153)) (x71 (= x9 x13)) (x119 (= x72 x101)) (x125 (= x28 x101)) (x93 (= x101 x22)) (x128 (= x101 x116)) (x44 (= x153 x115)) (x70 (= x126 x101)) (x76 (= x110 x46)) (x3 (= x13 x46)) (x79 (= x115 x126)) (x124 (= x153 x9)) (x102 (= x91 x9)) (x83 (= x11 x9)) (x15 (= x132 x61)) (x147 (= x46 x2)) (x137 (= x34 x46)) (x64 (= x101 x99)) (x18 (= x28 x46)) (x142 (= x29 x101)) (x158 (= x46 x43)) (x31 (= x14 x101)) (x108 (= x29 x61)) (x30 (= x11 x101)) (x49 (= x46 x67)) (x17 (= x46 x151)) (x140 (= x9 x132)) (x90 (= x14 x61)) (x6 (= x72 x61)) (x95 (= x101 x13)) (x25 (= x115 x34)) (x40 (= x65 x61)) (x112 (= x115 x2)) (x74 (= x146 x115)) (x68 (= x9 x146)) (x159 (= x39 x46)) (x35 (= x9 x110)) (x84 (= x28 x115)) (x144 (= x126 x46)) (x52 (= x99 x46)) (x63 (= x72 x115)) (x53 (= x103 x101)) (x77 (= x132 x46)) (x73 (= x107 x115)) (x5 (= x46 x146)) (x57 (= x91 x115)) (x1 (= x43 x115)) (x7 (= x116 x61)) (x145 (= x34 x61)) (x8 (= x9 x67)) (x118 (= x9 x43)) (x47 (= x110 x115)) (x75 (= x46 x103)) (x97 (= x87 x9)) (x10 (= x115 x14)) (x105 (= x22 x46)) (x104 (= x101 x107)) (x130 (= x46 x153)) (x37 (= x91 x101)) (x12 (= x9 x2)) (x133 (= x115 x39)) (x150 (= x115 x87)) (x139 (= x14 x9)) (x20 (= x2 x61)) (x16 (= x61 x43)) (x60 (= x46 x14)) (x131 (= x61 x87)) (x26 (= x22 x115)) (x19 (= x61 x13)) (x120 (= x9 x103)) (x48 (= x101 x132)) (x156 (= x115 x11)) (x114 (= x151 x101)) (x27 (= x65 x46)) (x45 (= x11 x61)) (x50 (= x34 x101)) (x41 (= x151 x9)) (x135 (= x101 x43)) (x129 (= x116 x46)) (x58 (= x34 x9)) (x82 (= x61 x39)) (x122 (= x46 x11)) (x24 (= x65 x115)) (x138 (= x61 x91)) (x86 (= x101 x2)) (x148 (= x110 x101)) (x94 (= x22 x9)) (x51 (= x61 x67)) (x36 (= x61 x22)) (x152 (= x67 x115)) (x55 (= x9 x39)) (x123 (= x115 x103)) (x80 (= x115 x99)) (x23 (= x9 x29)) (x121 (= x101 x39)) (x89 (= x132 x115)) (x157 (= x126 x61)) (x106 (= x61 x99)) (x136 (= x151 x61)) (x81 (= x46 x87)) (x21 (= x110 x61)) (x66 (= x153 x101)) (x111 (= x107 x9))) (and (and (and (and (and (and (and (or (or (or x41 (or x55 x118)) x97) x120) (or (or (or x58 (or x111 x118)) x35) x83)) (and (and (or (or x47 (or (or x73 x1) x25)) x156) (or (or x150 (or (or x1 x133) x59)) x123)) (and (and (or x30 (or x148 (or (or x135 x104) x50))) (or (or (or (or x135 x121) x114) x117) x53)) (and (or (or x81 (or x17 (or x159 x158))) x75) (or (or x76 (or (or x32 x158) x137)) x122))))) (and (or (or (or x145 (or x16 x143)) x21) x45) (or (or x131 (or (or x82 x16) x136)) x154))) (and (and (or (or x155 (or x6 (or x157 x82))) x7) (or (or (or (or x143 x157) x15) x138) x90)) (and (and (and (or (or x57 (or (or x79 x73) x89)) x10) (or (or (or (or x79 x133) x63) x44) x69)) (and (and (or (or (or x77 (or x32 x144)) x56) x60) (or (or (or x92 (or x159 x144)) x130) x129)) (and (or x128 (or x66 (or x119 (or x70 x121)))) (or x31 (or (or x48 (or x70 x104)) x37))))) (and (or x100 (or x124 (or (or x55 x113) x96))) (or x139 (or (or (or x113 x111) x140) x102)))))) (and (and (or (or (or x40 (or x6 x145)) x20) x106) (or (or x78 (or (or x15 x136) x40)) x19)) (and (and (and (and (or (or x86 (or (or x50 x119) x127)) x64) (or (or (or x127 (or x114 x48)) x125) x95)) (and (or x52 (or (or (or x137 x92) x27) x147)) (or (or (or (or x77 x17) x27) x18) x3))) (and (or x38 (or (or (or x89 x59) x24) x84)) (or (or x112 (or (or x25 x63) x24)) x80))) (and (or (or (or (or x58 x96) x4) x12) x42) (or (or (or x4 (or x41 x140)) x85) x71))))) (and (and (or (or (or x20 (or x138 x131)) x141) x108) (or x36 (or x141 (or (or x21 x155) x78)))) (and (and (and (or x33 (or x74 (or x112 (or x57 x150)))) (or (or (or x84 (or x47 x44)) x74) x26)) (and (and (or x142 (or x109 (or (or x117 x37) x86))) (or (or x109 (or x125 (or x66 x148))) x93)) (and (or x98 (or x5 (or x147 (or x81 x56)))) (or x105 (or (or x18 (or x76 x130)) x5))))) (and (or (or (or x12 (or x102 x97)) x68) x23) (or x94 (or x68 (or x85 (or x35 x124)))))))) (and (and (or x51 (or (or (or x7 x45) x19) x108)) (or x51 (or x36 (or (or x154 x90) x106)))) (and (and (or (or (or (or x120 x139) x42) x94) x8) (or x8 (or x23 (or (or x83 x100) x71)))) (and (and (or x152 (or (or (or x69 x156) x38) x33)) (or (or (or (or x10 x123) x80) x26) x152)) (and (and (or x49 (or (or (or x122 x129) x3) x98)) (or x49 (or (or x52 (or x60 x75)) x105))) (and (or (or (or (or x128 x30) x95) x142) x149) (or (or x93 (or x64 (or x53 x31))) x149))))))))))
(assert (let ((x6 (x62 x61 x9)) (x91 (x62 x46 x46)) (x117 (x62 x61 x61)) (x63 (x62 x61 x115)) (x28 (x62 x61 x101)) (x2 (x62 x115 x115)) (x65 (x62 x101 x61)) (x111 (x62 x46 x9)) (x82 (x62 x46 x61)) (x145 (x62 x9 x61)) (x143 (x62 x61 x46)) (x113 (x62 x9 x46)) (x27 (x62 x115 x101)) (x73 (x62 x101 x46)) (x89 (x62 x9 x115)) (x25 (x62 x115 x61)) (x92 (x62 x101 x115)) (x136 (x62 x9 x9)) (x133 (x62 x46 x101)) (x77 (x62 x101 x101)) (x55 (x62 x115 x46)) (x59 (x62 x115 x9)) (x79 (x62 x46 x115)) (x114 (x62 x101 x9)) (x48 (x62 x9 x101))) (let ((x149 (= x9 x6)) (x12 (= x115 x82)) (x110 (= x46 x55)) (x146 (= x73 x115)) (x156 (= x133 x61)) (x138 (= x115 x145)) (x39 (= x92 x46)) (x26 (= x61 x73)) (x106 (= x28 x61)) (x72 (= x65 x46)) (x14 (= x101 x91)) (x71 (= x61 x89)) (x104 (= x6 x46)) (x153 (= x46 x63)) (x50 (= x79 x101)) (x99 (= x2 x101)) (x51 (= x117 x61)) (x158 (= x91 x46)) (x151 (= x46 x2)) (x19 (= x61 x6)) (x18 (= x6 x101)) (x103 (= x111 x46)) (x44 (= x114 x115)) (x38 (= x55 x61)) (x10 (= x117 x9)) (x68 (= x25 x115)) (x5 (= x101 x145)) (x78 (= x9 x133)) (x24 (= x101 x113)) (x85 (= x63 x115)) (x13 (= x101 x55)) (x35 (= x28 x115)) (x43 (= x46 x73)) (x31 (= x9 x59)) (x23 (= x61 x59)) (x56 (= x28 x101)) (x75 (= x9 x55)) (x45 (= x63 x61)) (x119 (= x101 x27)) (x159 (= x59 x46)) (x100 (= x114 x61)) (x137 (= x101 x77)) (x32 (= x136 x46)) (x127 (= x101 x92)) (x83 (= x61 x48)) (x125 (= x115 x79)) (x8 (= x61 x136)) (x40 (= x143 x101)) (x141 (= x9 x77)) (x95 (= x9 x63)) (x132 (= x46 x117)) (x80 (= x91 x61)) (x90 (= x82 x61)) (x84 (= x115 x89)) (x30 (= x28 x9)) (x96 (= x89 x101)) (x131 (= x6 x115)) (x97 (= x136 x115)) (x120 (= x61 x92)) (x140 (= x48 x101)) (x116 (= x25 x46)) (x52 (= x27 x9)) (x94 (= x111 x61)) (x15 (= x101 x136)) (x126 (= x28 x46)) (x105 (= x9 x92)) (x3 (= x111 x9)) (x109 (= x27 x115)) (x66 (= x115 x55)) (x142 (= x25 x9)) (x74 (= x59 x115)) (x70 (= x145 x46)) (x76 (= x63 x101)) (x60 (= x79 x9)) (x121 (= x46 x82)) (x20 (= x115 x117)) (x98 (= x9 x48)) (x155 (= x9 x73)) (x47 (= x48 x115)) (x49 (= x9 x114)) (x118 (= x114 x46)) (x16 (= x46 x89)) (x135 (= x27 x46)) (x122 (= x9 x2)) (x152 (= x61 x27)) (x58 (= x114 x101)) (x147 (= x101 x65)) (x123 (= x145 x9)) (x17 (= x101 x133)) (x148 (= x77 x115)) (x37 (= x101 x117)) (x112 (= x111 x115)) (x86 (= x115 x91)) (x42 (= x113 x61)) (x67 (= x82 x9)) (x34 (= x46 x77)) (x124 (= x65 x115)) (x154 (= x143 x61)) (x157 (= x73 x101)) (x130 (= x25 x101)) (x129 (= x113 x9)) (x7 (= x61 x25)) (x29 (= x115 x133)) (x108 (= x145 x61)) (x41 (= x111 x101)) (x69 (= x61 x77)) (x1 (= x46 x48)) (x64 (= x136 x9)) (x4 (= x101 x59)) (x128 (= x9 x65)) (x57 (= x115 x113)) (x81 (= x82 x101)) (x11 (= x46 x79)) (x107 (= x46 x133)) (x150 (= x115 x2)) (x87 (= x46 x113)) (x53 (= x89 x9)) (x102 (= x115 x143)) (x36 (= x61 x65)) (x22 (= x92 x115)) (x144 (= x46 x143)) (x33 (= x79 x61)) (x21 (= x91 x9)) (x93 (= x9 x143)) (x139 (= x2 x61))) (or (and (and (and (and (or (not x8) x8) (and (or x23 (not x71)) (and (or x100 (not x83)) (or (not x42) x94)))) (or x19 (not x108))) (and (and (and (or (not x36) x106) (and (or (not x100) x83) (and (or x152 (not x120)) (and (or x69 (not x69)) (or x156 (not x26)))))) (and (and (and (or x38 (not x33)) (and (or (not x156) x26) (or (not x80) x80))) (or (not x94) x42)) (or (not x90) x154))) (and (or (not x7) x45) (and (and (or (not x139) x139) (and (or (not x152) x120) (or x33 (not x38)))) (or x71 (not x23)))))) (and (and (or x108 (not x19)) (and (or x7 (not x45)) (and (or x36 (not x106)) (or x90 (not x154))))) (or x51 (not x51)))) (or (or (or (and (and (and (or x70 (not x104)) (and (or x116 (not x153)) (and (or (not x144) x121) (or x72 (not x126))))) (or (not x132) x132)) (and (and (or (not x70) x104) (and (and (or x159 (not x16)) (and (or (not x87) x103) (or x118 (not x1)))) (or (not x32) x32))) (and (and (and (and (or (not x118) x1) (and (and (or (not x34) x34) (or x107 (not x43))) (or x135 (not x39)))) (or x126 (not x72))) (and (and (and (or (not x11) x110) (and (or x158 (not x158)) (or x43 (not x107)))) (or x87 (not x103))) (or x144 (not x121)))) (and (and (or x16 (not x159)) (and (and (or x39 (not x135)) (or (not x110) x11)) (or (not x151) x151))) (or (not x116) x153))))) (and (and (and (and (and (and (or (not x24) x41) (or x58 (not x140))) (or (not x96) x4)) (or (not x15) x15)) (or x18 (not x5))) (and (and (and (or (not x81) x40) (and (or x24 (not x41)) (and (and (or (not x17) x157) (or (not x14) x14)) (or x13 (not x50))))) (and (and (and (and (or (not x137) x137) (or x17 (not x157))) (or x119 (not x127))) (or x140 (not x58))) (or x56 (not x147)))) (and (and (or (not x4) x96) (and (or x99 (not x99)) (and (or (not x119) x127) (or (not x13) x50)))) (or (not x130) x76)))) (and (or (not x37) x37) (and (and (or x130 (not x76)) (and (or (not x40) x81) (or x147 (not x56)))) (or (not x18) x5))))) (and (and (and (and (and (and (and (or x22 (not x109)) (or x125 (not x66))) (or (not x150) x150)) (or (not x74) x84)) (or x85 (not x68))) (and (and (or (not x124) x35) (and (or (not x44) x47) (and (and (or (not x146) x29) (or x148 (not x148))) (or (not x22) x109)))) (and (and (or x57 (not x112)) (and (and (or x146 (not x29)) (or x86 (not x86))) (or (not x125) x66))) (or x102 (not x12))))) (and (and (or (not x97) x97) (and (or (not x84) x74) (and (or x112 (not x57)) (or (not x47) x44)))) (or x131 (not x138)))) (and (or x20 (not x20)) (and (or x138 (not x131)) (and (or (not x85) x68) (and (or (not x102) x12) (or x124 (not x35)))))))) (and (and (or x10 (not x10)) (and (or x123 (not x149)) (and (or (not x95) x142) (and (or x128 (not x30)) (or x67 (not x93)))))) (and (and (and (and (and (or x49 (not x98)) (or x3 (not x129))) (or (not x53) x31)) (or x64 (not x64))) (or x149 (not x123))) (and (and (and (or x93 (not x67)) (and (or x129 (not x3)) (and (or (not x60) x75) (and (or (not x78) x155) (or x21 (not x21)))))) (and (or x30 (not x128)) (and (and (or x52 (not x105)) (and (or (not x141) x141) (or x78 (not x155)))) (or (not x49) x98)))) (and (or (not x142) x95) (and (or x53 (not x31)) (and (and (or (not x52) x105) (or (not x75) x60)) (or (not x122) x122))))))))))))
(assert (and (and (and (= (x62 x115 x46) x101) (= x46 (x62 x61 x61))) (= x115 (x62 x46 x46))) (= x9 (x62 x61 x101))))
(assert (not (and (= (x62 x61 x61) x46) (and (= (x62 x61 x9) x101) (and (and (= x9 (x62 x61 x101)) (and (and (and (= (x62 x9 x9) x115) (and (and (and (= (x62 x9 x46) x46) (and (= x115 (x62 x115 x61)) (and (and (and (= x61 (x62 x115 x101)) (and (= (x62 x115 x46) x101) (and (= (x62 x101 x61) x101) (and (= (x62 x101 x9) x61) (and (and (= (x62 x101 x101) x115) (and (and (and (= (x62 x46 x9) x9) (and (= x101 (x62 x46 x115)) (and (= (x62 x46 x101) x46) (= (x62 x46 x46) x115)))) (= (x62 x46 x61) x61)) (= x9 (x62 x101 x46)))) (= x46 (x62 x101 x115))))))) (= (x62 x115 x115) x9)) (= x46 (x62 x115 x9))))) (= (x62 x9 x101) x101)) (= (x62 x9 x115) x61))) (= x9 (x62 x9 x61))) (= x61 (x62 x61 x46)))) (= x115 (x62 x61 x115)))))))
(assert (let ((x34 (x62 x9 x9)) (x110 (x62 x61 x61)) (x107 (x62 x115 x115)) (x43 (x62 x101 x101)) (x158 (x62 x46 x46))) (or (and (not (= x61 x110)) (and (not (= x34 x61)) (and (and (not (= x158 x61)) (not (= x61 x43))) (not (= x61 x107))))) (or (or (and (not (= x115 x110)) (and (and (and (not (= x115 x158)) (not (= x43 x115))) (not (= x115 x107))) (not (= x115 x34)))) (or (and (not (= x110 x101)) (and (and (not (= x107 x101)) (and (not (= x43 x101)) (not (= x101 x158)))) (not (= x34 x101)))) (and (and (and (not (= x46 x107)) (and (not (= x46 x158)) (not (= x43 x46)))) (not (= x34 x46))) (not (= x46 x110))))) (and (not (= x9 x110)) (and (not (= x34 x9)) (and (not (= x9 x107)) (and (not (= x158 x9)) (not (= x9 x43))))))))))
(assert (let ((x39 (x62 x101 x115)) (x118 (x62 x115 x115)) (x121 (x62 x9 x115)) (x116 (x62 x61 x101)) (x43 (x62 x46 x101)) (x1 (x62 x115 x101)) (x159 (x62 x115 x61)) (x107 (x62 x46 x115)) (x72 (x62 x9 x61)) (x135 (x62 x101 x101)) (x144 (x62 x9 x101)) (x132 (x62 x61 x61)) (x110 (x62 x46 x61)) (x34 (x62 x46 x9)) (x70 (x62 x61 x9)) (x11 (x62 x101 x46)) (x158 (x62 x46 x46)) (x87 (x62 x101 x61)) (x32 (x62 x9 x46)) (x153 (x62 x61 x46)) (x151 (x62 x101 x9)) (x104 (x62 x61 x115)) (x16 (x62 x115 x9)) (x103 (x62 x115 x46)) (x126 (x62 x9 x9))) (and (and (and (and (or (or (= x9 (x62 x151 x151)) (or (= x115 (x62 x39 x39)) (or (= (x62 x11 x11) x46) (= (x62 x135 x135) x101)))) (= (x62 x87 x87) x61)) (or (or (or (= x115 (x62 x107 x107)) (or (= (x62 x158 x158) x46) (= x101 (x62 x43 x43)))) (= (x62 x34 x34) x9)) (= x61 (x62 x110 x110)))) (or (or (or (or (= (x62 x103 x103) x46) (= (x62 x1 x1) x101)) (= (x62 x118 x118) x115)) (= (x62 x16 x16) x9)) (= x61 (x62 x159 x159)))) (or (= x61 (x62 x72 x72)) (or (= (x62 x126 x126) x9) (or (= (x62 x121 x121) x115) (or (= (x62 x144 x144) x101) (= (x62 x32 x32) x46)))))) (or (= x61 (x62 x132 x132)) (or (or (= (x62 x104 x104) x115) (or (= (x62 x116 x116) x101) (= (x62 x153 x153) x46))) (= (x62 x70 x70) x9))))))
(assert (and (and (and (not (= x9 x115)) (and (not (= x101 x61)) (and (not (= x101 x9)) (and (and (not (= x46 x61)) (and (not (= x9 x46)) (and (not (= x101 x46)) (not (= x46 x115))))) (not (= x115 x101)))))) (not (= x115 x61))) (not (= x9 x61))))
(assert (let ((x158 (x62 x46 x46)) (x32 (x62 x46 x9)) (x151 (x62 x9 x101)) (x16 (x62 x9 x115)) (x132 (x62 x61 x61)) (x70 (x62 x9 x61)) (x87 (x62 x61 x101)) (x135 (x62 x101 x101)) (x34 (x62 x9 x46)) (x126 (x62 x9 x9)) (x43 (x62 x101 x46)) (x116 (x62 x101 x61)) (x110 (x62 x61 x46)) (x39 (x62 x115 x101)) (x103 (x62 x46 x115)) (x104 (x62 x115 x61)) (x107 (x62 x115 x46)) (x159 (x62 x61 x115)) (x121 (x62 x115 x9)) (x118 (x62 x115 x115)) (x144 (x62 x101 x9)) (x1 (x62 x101 x115)) (x11 (x62 x46 x101)) (x72 (x62 x61 x9)) (x153 (x62 x46 x61))) (and (and (and (not (= x72 x132)) (and (and (not (= x159 x72)) (and (not (= x87 x132)) (and (not (= x87 x72)) (and (not (= x87 x159)) (and (and (not (= x72 x110)) (and (not (= x110 x87)) (not (= x110 x159)))) (not (= x132 x110))))))) (not (= x159 x132)))) (and (and (and (and (not (= x16 x126)) (and (and (not (= x126 x151)) (and (not (= x16 x151)) (and (and (not (= x126 x34)) (and (not (= x16 x34)) (not (= x151 x34)))) (not (= x34 x70))))) (not (= x70 x151)))) (not (= x70 x16))) (not (= x126 x70))) (and (and (and (and (and (and (not (= x11 x153)) (and (not (= x11 x32)) (and (not (= x103 x11)) (and (and (not (= x32 x158)) (and (not (= x158 x103)) (not (= x11 x158)))) (not (= x153 x158)))))) (not (= x103 x32))) (not (= x103 x153))) (not (= x153 x32))) (and (and (not (= x116 x1)) (and (not (= x144 x1)) (and (and (and (and (and (not (= x43 x144)) (and (not (= x135 x43)) (not (= x43 x1)))) (not (= x43 x116))) (not (= x135 x1))) (not (= x135 x144))) (not (= x116 x135))))) (not (= x116 x144)))) (and (not (= x121 x104)) (and (and (and (not (= x104 x39)) (and (not (= x39 x121)) (and (not (= x118 x39)) (and (not (= x107 x104)) (and (and (not (= x107 x39)) (not (= x118 x107))) (not (= x107 x121))))))) (not (= x118 x121))) (not (= x118 x104))))))) (and (and (not (= x70 x132)) (and (and (and (not (= x132 x116)) (and (and (and (not (= x132 x153)) (and (not (= x70 x153)) (and (not (= x104 x153)) (not (= x116 x153))))) (not (= x116 x104))) (not (= x70 x116)))) (not (= x104 x70))) (not (= x104 x132)))) (and (and (and (and (not (= x159 x118)) (and (not (= x118 x16)) (and (and (and (and (and (and (not (= x118 x103)) (not (= x103 x1))) (not (= x103 x16))) (not (= x103 x159))) (not (= x1 x118))) (not (= x1 x16))) (not (= x1 x159))))) (not (= x16 x159))) (and (and (not (= x151 x87)) (and (and (and (not (= x135 x87)) (and (and (and (and (not (= x11 x151)) (and (not (= x11 x39)) (not (= x11 x135)))) (not (= x11 x87))) (not (= x39 x135))) (not (= x151 x135)))) (not (= x151 x39))) (not (= x87 x39)))) (and (not (= x34 x110)) (and (not (= x107 x110)) (and (and (and (and (and (not (= x158 x110)) (and (not (= x34 x158)) (and (not (= x158 x43)) (not (= x107 x158))))) (not (= x43 x107))) (not (= x43 x34))) (not (= x43 x110))) (not (= x34 x107))))))) (and (not (= x126 x72)) (and (and (and (not (= x144 x72)) (and (not (= x144 x126)) (and (not (= x121 x144)) (and (not (= x72 x32)) (and (and (not (= x32 x121)) (not (= x32 x144))) (not (= x126 x32))))))) (not (= x121 x126))) (not (= x121 x72)))))))))
(assert (let ((x143 (x62 x61 x46)) (x73 (x62 x101 x46)) (x63 (x62 x61 x115)) (x25 (x62 x115 x61)) (x2 (x62 x115 x115)) (x111 (x62 x46 x9)) (x27 (x62 x115 x101)) (x91 (x62 x46 x46)) (x79 (x62 x46 x115)) (x114 (x62 x101 x9)) (x136 (x62 x9 x9)) (x65 (x62 x101 x61)) (x55 (x62 x115 x46)) (x92 (x62 x101 x115)) (x82 (x62 x46 x61)) (x133 (x62 x46 x101)) (x113 (x62 x9 x46)) (x6 (x62 x61 x9)) (x59 (x62 x115 x9)) (x48 (x62 x9 x101)) (x77 (x62 x101 x101)) (x28 (x62 x61 x101)) (x145 (x62 x9 x61)) (x89 (x62 x9 x115)) (x117 (x62 x61 x61))) (let ((x148 (= x77 x115)) (x80 (= x91 x61)) (x126 (= x28 x46)) (x109 (= x115 x27)) (x71 (= x89 x61)) (x83 (= x48 x61)) (x156 (= x133 x61)) (x154 (= x61 x143)) (x12 (= x115 x82)) (x125 (= x79 x115)) (x29 (= x133 x115)) (x37 (= x101 x117)) (x99 (= x2 x101)) (x137 (= x77 x101)) (x97 (= x136 x115)) (x122 (= x9 x2)) (x135 (= x27 x46)) (x120 (= x92 x61)) (x129 (= x113 x9)) (x33 (= x61 x79)) (x36 (= x65 x61)) (x140 (= x101 x48)) (x142 (= x9 x25)) (x47 (= x48 x115)) (x51 (= x61 x117)) (x31 (= x9 x59)) (x8 (= x136 x61)) (x151 (= x46 x2)) (x35 (= x28 x115)) (x106 (= x28 x61)) (x149 (= x6 x9)) (x102 (= x115 x143)) (x87 (= x113 x46)) (x146 (= x73 x115)) (x40 (= x101 x143)) (x4 (= x59 x101)) (x128 (= x9 x65)) (x104 (= x6 x46)) (x93 (= x9 x143)) (x85 (= x63 x115)) (x26 (= x61 x73)) (x139 (= x61 x2)) (x84 (= x115 x89)) (x20 (= x115 x117)) (x42 (= x113 x61)) (x43 (= x73 x46)) (x41 (= x101 x111)) (x108 (= x145 x61)) (x90 (= x82 x61)) (x58 (= x114 x101)) (x150 (= x115 x2)) (x22 (= x92 x115)) (x13 (= x101 x55)) (x3 (= x111 x9)) (x130 (= x101 x25)) (x121 (= x82 x46)) (x96 (= x101 x89)) (x138 (= x115 x145)) (x60 (= x9 x79)) (x86 (= x115 x91)) (x124 (= x115 x65)) (x119 (= x101 x27)) (x49 (= x114 x9)) (x110 (= x46 x55)) (x11 (= x46 x79)) (x1 (= x48 x46)) (x105 (= x9 x92)) (x19 (= x6 x61)) (x144 (= x46 x143)) (x64 (= x9 x136)) (x5 (= x145 x101)) (x45 (= x61 x63)) (x94 (= x111 x61)) (x118 (= x114 x46)) (x81 (= x101 x82)) (x44 (= x114 x115)) (x50 (= x79 x101)) (x95 (= x9 x63)) (x74 (= x59 x115)) (x76 (= x63 x101)) (x107 (= x133 x46)) (x127 (= x92 x101)) (x116 (= x46 x25)) (x72 (= x65 x46)) (x147 (= x101 x65)) (x34 (= x77 x46)) (x68 (= x25 x115)) (x132 (= x46 x117)) (x158 (= x91 x46)) (x38 (= x55 x61)) (x78 (= x9 x133)) (x141 (= x77 x9)) (x67 (= x9 x82)) (x123 (= x145 x9)) (x155 (= x9 x73)) (x39 (= x46 x92)) (x157 (= x101 x73)) (x18 (= x6 x101)) (x100 (= x61 x114)) (x66 (= x55 x115)) (x14 (= x91 x101)) (x69 (= x61 x77)) (x70 (= x46 x145)) (x7 (= x61 x25)) (x159 (= x46 x59)) (x15 (= x136 x101)) (x153 (= x46 x63)) (x53 (= x9 x89)) (x17 (= x101 x133)) (x57 (= x113 x115)) (x23 (= x61 x59)) (x10 (= x9 x117)) (x21 (= x91 x9)) (x52 (= x9 x27)) (x152 (= x27 x61)) (x103 (= x111 x46)) (x32 (= x46 x136)) (x112 (= x115 x111)) (x16 (= x89 x46)) (x56 (= x101 x28)) (x75 (= x55 x9)) (x24 (= x101 x113)) (x131 (= x115 x6)) (x98 (= x48 x9)) (x30 (= x28 x9))) (and (and (or (or (and x10 x10) (or (or (or (and x30 x128) (and x93 x67)) (and x95 x142)) (and x149 x123))) (or (or (or (or (or (or (and x105 x52) (or (and x78 x155) (and x141 x141))) (and x98 x49)) (and x128 x30)) (or (or (or (or (and x21 x21) (and x155 x78)) (and x60 x75)) (and x129 x3)) (and x93 x67))) (or (or (or (and x122 x122) (or (and x60 x75) (and x105 x52))) (and x31 x53)) (and x95 x142))) (or (and x149 x123) (or (and x64 x64) (or (or (and x49 x98) (and x129 x3)) (and x53 x31)))))) (and (and (or (or (or (or (or (or (and x24 x41) (and x140 x58)) (and x96 x4)) (and x15 x15)) (and x18 x5)) (or (or (or (or (or (and x127 x119) (or (and x137 x137) (and x17 x157))) (and x140 x58)) (and x147 x56)) (or (or (or (or (and x157 x17) (and x14 x14)) (and x13 x50)) (and x41 x24)) (and x40 x81))) (or (or (and x96 x4) (or (or (and x13 x50) (and x127 x119)) (and x99 x99))) (and x130 x76)))) (or (and x37 x37) (or (and x18 x5) (or (or (and x56 x147) (and x40 x81)) (and x130 x76))))) (or (or (and x132 x132) (or (and x104 x70) (or (or (and x121 x144) (and x72 x126)) (and x116 x153)))) (or (or (and x104 x70) (or (and x32 x32) (or (and x16 x159) (or (and x1 x118) (and x103 x87))))) (or (or (or (and x121 x144) (or (or (and x11 x110) (or (and x43 x107) (and x158 x158))) (and x87 x103))) (or (and x72 x126) (or (and x118 x1) (or (or (and x43 x107) (and x34 x34)) (and x135 x39))))) (or (or (or (and x151 x151) (or (and x11 x110) (and x135 x39))) (and x159 x16)) (and x116 x153)))))) (or (or (or (and x131 x138) (or (and x97 x97) (or (or (and x47 x44) (and x112 x57)) (and x84 x74)))) (or (or (or (or (or (or (and x29 x146) (and x86 x86)) (and x125 x66)) (and x112 x57)) (and x102 x12)) (or (and x124 x35) (or (and x44 x47) (or (and x22 x109) (or (and x148 x148) (and x29 x146)))))) (or (and x68 x85) (or (or (or (and x22 x109) (and x66 x125)) (and x150 x150)) (and x74 x84))))) (or (and x20 x20) (or (or (or (and x12 x102) (and x35 x124)) (and x68 x85)) (and x131 x138)))))) (or (or (or (or (or (or (or (or (and x26 x156) (and x69 x69)) (and x152 x120)) (and x100 x83)) (and x106 x36)) (or (and x90 x154) (or (and x42 x94) (or (or (and x26 x156) (and x80 x80)) (and x33 x38))))) (or (and x45 x7) (or (and x23 x71) (or (or (and x33 x38) (and x152 x120)) (and x139 x139))))) (or (or (or (and x23 x71) (or (and x94 x42) (and x83 x100))) (and x8 x8)) (and x19 x108))) (or (and x51 x51) (or (and x19 x108) (or (or (and x154 x90) (and x36 x106)) (and x7 x45)))))))))
(assert (let ((x1 (x62 x115 x101)) (x121 (x62 x9 x115)) (x39 (x62 x101 x115)) (x144 (x62 x9 x101)) (x72 (x62 x9 x61)) (x110 (x62 x46 x61)) (x87 (x62 x101 x61)) (x118 (x62 x115 x115)) (x153 (x62 x61 x46)) (x103 (x62 x115 x46)) (x34 (x62 x46 x9)) (x16 (x62 x115 x9)) (x126 (x62 x9 x9)) (x116 (x62 x61 x101)) (x32 (x62 x9 x46)) (x70 (x62 x61 x9)) (x159 (x62 x115 x61)) (x158 (x62 x46 x46)) (x11 (x62 x101 x46)) (x151 (x62 x101 x9)) (x104 (x62 x61 x115)) (x107 (x62 x46 x115)) (x135 (x62 x101 x101)) (x43 (x62 x46 x101)) (x132 (x62 x61 x61))) (and (and (and (and (and (and (and (and (or (or (or (= x158 x115) (or (= x158 x101) (= x158 x46))) (= x9 x158)) (= x158 x61)) (or (= x43 x61) (or (= x9 x43) (or (= x43 x115) (or (= x43 x46) (= x101 x43)))))) (or (or (or (= x107 x115) (or (= x107 x101) (= x46 x107))) (= x9 x107)) (= x61 x107))) (or (or (or (= x115 x34) (or (= x34 x46) (= x34 x101))) (= x34 x9)) (= x34 x61))) (or (= x110 x61) (or (or (= x115 x110) (or (= x101 x110) (= x46 x110))) (= x110 x9)))) (and (or (= x87 x61) (or (= x9 x87) (or (or (= x87 x101) (= x87 x46)) (= x115 x87)))) (and (and (or (or (= x9 x39) (or (= x115 x39) (or (= x39 x101) (= x46 x39)))) (= x61 x39)) (and (or (= x61 x135) (or (= x9 x135) (or (= x115 x135) (or (= x135 x46) (= x135 x101))))) (or (= x11 x61) (or (= x11 x9) (or (= x11 x115) (or (= x11 x46) (= x101 x11))))))) (or (or (= x9 x151) (or (= x115 x151) (or (= x101 x151) (= x46 x151)))) (= x151 x61))))) (and (or (or (or (= x115 x159) (or (= x46 x159) (= x159 x101))) (= x159 x9)) (= x61 x159)) (and (or (= x16 x61) (or (= x9 x16) (or (= x16 x115) (or (= x101 x16) (= x46 x16))))) (and (or (or (= x9 x118) (or (or (= x118 x101) (= x46 x118)) (= x118 x115))) (= x118 x61)) (and (or (or (or (or (= x1 x101) (= x1 x46)) (= x115 x1)) (= x1 x9)) (= x61 x1)) (or (= x61 x103) (or (or (= x103 x115) (or (= x101 x103) (= x103 x46))) (= x9 x103)))))))) (and (and (and (and (or (or (= x9 x144) (or (= x115 x144) (or (= x144 x46) (= x101 x144)))) (= x144 x61)) (or (or (= x9 x32) (or (= x32 x115) (or (= x32 x46) (= x32 x101)))) (= x61 x32))) (or (= x121 x61) (or (= x121 x9) (or (or (= x121 x101) (= x46 x121)) (= x115 x121))))) (or (= x126 x61) (or (or (or (= x126 x101) (= x126 x46)) (= x115 x126)) (= x126 x9)))) (or (= x72 x61) (or (or (= x115 x72) (or (= x72 x46) (= x101 x72))) (= x9 x72))))) (and (and (and (or (or (or (= x115 x104) (or (= x101 x104) (= x46 x104))) (= x9 x104)) (= x61 x104)) (and (or (or (= x9 x153) (or (= x153 x115) (or (= x153 x46) (= x153 x101)))) (= x61 x153)) (or (or (= x9 x116) (or (or (= x116 x46) (= x101 x116)) (= x115 x116))) (= x61 x116)))) (or (= x70 x61) (or (= x9 x70) (or (= x70 x115) (or (= x101 x70) (= x46 x70)))))) (or (= x132 x61) (or (or (or (= x101 x132) (= x132 x46)) (= x132 x115)) (= x9 x132)))))))
(assert (and (not (= (x62 x61 x61) x61)) (and (and (not (= (x62 x115 x115) x115)) (and (not (= (x62 x101 x101) x101)) (not (= x46 (x62 x46 x46))))) (not (= x9 (x62 x9 x9))))))
(assert (or (or (or (and (not (= x115 (x62 (x62 x61 x115) x61))) (and (not (= (x62 (x62 x9 x115) x9) x115)) (and (and (not (= x115 (x62 (x62 x101 x115) x101))) (not (= (x62 (x62 x46 x115) x46) x115))) (not (= (x62 (x62 x115 x115) x115) x115))))) (or (and (and (and (not (= (x62 (x62 x115 x46) x115) x46)) (and (not (= x46 (x62 (x62 x101 x46) x101))) (not (= (x62 (x62 x46 x46) x46) x46)))) (not (= x46 (x62 (x62 x9 x46) x9)))) (not (= x46 (x62 (x62 x61 x46) x61)))) (and (and (not (= (x62 (x62 x9 x101) x9) x101)) (and (and (not (= x101 (x62 (x62 x46 x101) x46))) (not (= x101 (x62 (x62 x101 x101) x101)))) (not (= (x62 (x62 x115 x101) x115) x101)))) (not (= (x62 (x62 x61 x101) x61) x101))))) (and (not (= (x62 (x62 x61 x9) x61) x9)) (and (and (and (not (= x9 (x62 (x62 x101 x9) x101))) (not (= x9 (x62 (x62 x46 x9) x46)))) (not (= x9 (x62 (x62 x115 x9) x115)))) (not (= x9 (x62 (x62 x9 x9) x9)))))) (and (and (not (= (x62 (x62 x9 x61) x9) x61)) (and (and (not (= x61 (x62 (x62 x46 x61) x46))) (not (= x61 (x62 (x62 x101 x61) x101)))) (not (= x61 (x62 (x62 x115 x61) x115))))) (not (= x61 (x62 (x62 x61 x61) x61))))))
(assert (or (and (and (and (not (= x115 (x62 x61 x115))) (and (not (= (x62 x61 x46) x46)) (not (= x101 (x62 x61 x101))))) (not (= x9 (x62 x61 x9)))) (not (= (x62 x61 x61) x61))) (or (and (not (= (x62 x9 x61) x61)) (and (and (not (= (x62 x9 x115) x115)) (and (not (= x46 (x62 x9 x46))) (not (= x101 (x62 x9 x101))))) (not (= x9 (x62 x9 x9))))) (or (and (not (= (x62 x115 x61) x61)) (and (and (not (= (x62 x115 x115) x115)) (and (not (= x46 (x62 x115 x46))) (not (= x101 (x62 x115 x101))))) (not (= x9 (x62 x115 x9))))) (or (and (not (= (x62 x101 x61) x61)) (and (and (and (not (= (x62 x101 x101) x101)) (not (= x46 (x62 x101 x46)))) (not (= x115 (x62 x101 x115)))) (not (= x9 (x62 x101 x9))))) (and (not (= (x62 x46 x61) x61)) (and (not (= (x62 x46 x9) x9)) (and (and (not (= (x62 x46 x46) x46)) (not (= x101 (x62 x46 x101)))) (not (= (x62 x46 x115) x115))))))))))
(assert (let ((x103 (not (= (x62 x46 x9) x46))) (x135 (not (= (x62 x115 x101) x115))) (x104 (not (= x61 (x62 x61 x9)))) (x1 (not (= (x62 x9 x101) x9))) (x153 (not (= x61 (x62 x61 x115)))) (x158 (not (= x46 (x62 x46 x46)))) (x116 (not (= x115 (x62 x115 x61)))) (x43 (not (= (x62 x101 x46) x101))) (x87 (not (= x9 (x62 x9 x46)))) (x72 (not (= (x62 x101 x61) x101))) (x132 (not (= x61 (x62 x61 x61)))) (x16 (not (= x9 (x62 x9 x115)))) (x107 (not (= x46 (x62 x46 x101)))) (x39 (not (= x101 (x62 x101 x115)))) (x70 (not (= x9 (x62 x9 x61)))) (x110 (not (= (x62 x115 x46) x115))) (x32 (not (= x9 (x62 x9 x9)))) (x11 (not (= (x62 x46 x115) x46))) (x159 (not (= x115 (x62 x115 x9)))) (x34 (not (= (x62 x101 x101) x101))) (x144 (not (= (x62 x61 x46) x61))) (x151 (not (= (x62 x115 x115) x115))) (x121 (not (= (x62 x46 x61) x46))) (x126 (not (= x61 (x62 x61 x101)))) (x118 (not (= x101 (x62 x101 x9))))) (and (and (or x132 x132) (and (or x70 x104) (and (or x116 x153) (and (or x144 x121) (or x126 x72))))) (and (and (and (or x116 x153) (and (and (and (or x39 x135) (or x11 x110)) (or x151 x151)) (or x159 x16))) (and (and (or x126 x72) (and (or x118 x1) (and (or x135 x39) (and (or x34 x34) (or x107 x43))))) (and (and (or x87 x103) (and (or x11 x110) (and (or x43 x107) (or x158 x158)))) (or x144 x121)))) (and (and (or x32 x32) (and (or x16 x159) (and (or x1 x118) (or x103 x87)))) (or x70 x104))))))
(check-sat)
(exit)
